Version identifier: 22.1.0.0 | 2022-03-09 | 1a383f8ce
CPXPARAM_Threads                                 1
CPXPARAM_MIP_Strategy_VariableSelect             3
CPXPARAM_TimeLimit                               600
Tried aggregator 1 time.
Reduced MIP has 1224 rows, 6800 columns, and 54086 nonzeros.
Reduced MIP has 5800 binaries, 1000 generals, 0 SOSs, and 0 indicators.
Presolve time = 0.03 sec. (21.32 ticks)
Probing time = 0.01 sec. (6.66 ticks)
Tried aggregator 1 time.
Detecting symmetries...
Reduced MIP has 1224 rows, 6800 columns, and 54086 nonzeros.
Reduced MIP has 5800 binaries, 1000 generals, 0 SOSs, and 0 indicators.
Presolve time = 0.04 sec. (29.64 ticks)
Probing time = 0.01 sec. (6.66 ticks)
Clique table members: 202.
MIP emphasis: balance optimality and feasibility.
MIP search method: dynamic search.
Parallel mode: none, using 1 thread.
Root relaxation solution time = 0.71 sec. (732.72 ticks)

        Nodes                                         Cuts/
   Node  Left     Objective  IInf  Best Integer    Best Bound    ItCnt     Gap

      0     0        0.0000  1140                      0.0000     3240         
      0     0        0.0000   635                 ZeroHalf: 1     3599         
      0     0        0.0000   822                    Cuts: 78     7370         
      0     0        0.0000   544                 ZeroHalf: 5     9151         
      0     0        0.0000   853                 ZeroHalf: 7    12666         
Detecting symmetries...
      0     2        0.0000   368                      0.0000    12666         
Elapsed time = 26.93 sec. (29301.56 ticks, tree = 0.01 MB, solutions = 0)
      2     2        0.0000   830                      0.0000    17481         
      3     3        0.0250  1054                      0.0000    26491         
      4     4        0.0000   837                      0.0000    26616         
      5     5        0.0000   765                      0.0000    30085         
      6     6        0.0000   666                      0.0000    35484         
      7     7        0.0000   678                      0.0000    46833         
      8     8        0.0000   689                      0.0000    47680         
      9     9        0.0000   624                      0.0000    56639         
     10    10       -0.0000   696                      0.0000    65416         
     11    11        0.0000   566                      0.0000    73804         
Elapsed time = 42.94 sec. (47006.49 ticks, tree = 0.04 MB, solutions = 0)
     12    12        0.1212   795                      0.0000    86289         
     14    14        0.0000   519                      0.0000    89612         
     15    15        0.0000   491                      0.0000    93905         
     16    16        0.0000   542                      0.0000    99458         
     19    19       -0.0000   492                      0.0000   100793         
     21    21        0.2381   726                      0.0000   104646         
     23    23        0.0238   685                      0.0000   109708         
     25    25       -0.0000   475                      0.0000   111860         
     27    26        0.1905   671                      0.0000   117007         
     29    28        0.0000   511                      0.0000   120054         
Elapsed time = 56.82 sec. (61501.30 ticks, tree = 0.18 MB, solutions = 0)
     31    30       -0.0000   518                      0.0000   123268         
     33    32       -0.0000   514                      0.0000   125186         
     34    33        0.1429   770                      0.0000   130068         
     36    35        0.0000   508                      0.0000   134676         
     37    36        0.2381   767                      0.0000   138194         
     38    37       -0.0000   610                      0.0000   142540         
     40    39        0.0000   662                      0.0000   147684         
     43    42        0.1905   720                      0.0000   151512         
     48    45       -0.0000   462                      0.0000   154060         
     50    47        0.0000   490                      0.0000   156348         
Elapsed time = 69.31 sec. (74348.24 ticks, tree = 0.36 MB, solutions = 0)
     52    49       -0.0000   474                      0.0000   158774         
     54    51       -0.0000   454                      0.0000   162528         
     56    53       -0.0000   435                      0.0000   165456         
     59    56       -0.0000   589                      0.0000   170710         
     60    57        0.0000   551                      0.0000   173574         
     62    59        0.2381   624                      0.0000   179553         
     66    59        cutoff                            0.0000   193096         
     68    61        0.1429   630                      0.0000   195977         
     70    63        0.0000   473                      0.0000   198798         
     72    65        0.0000   430                      0.0000   202142         
Elapsed time = 83.08 sec. (88117.56 ticks, tree = 0.53 MB, solutions = 0)
     75    68        0.0000   452                      0.0000   206477         
     77    70       -0.0000   480                      0.0000   211946         
     78    71   9.53962e+26   636                      0.0000   252181         
     80    73       -0.0000   468                      0.0000   258473         
     82    75        0.0000   492                      0.0000   266296         
     83    76        2.6824   617                      0.0000   270680         
     85    78        0.2500   517                      0.0000   278302         
     87    80        0.1875   532                      0.0000   282518         
     89    82        0.0000   506                      0.0000   285618         
     90    83        5.1903   647                      0.0000   288618         
Elapsed time = 102.00 sec. (106465.84 ticks, tree = 0.65 MB, solutions = 0)
     92    85        4.7800   541                      0.0000   293184         
     94    87        4.5208   534                      0.0000   296337         
     97    90       -0.0000   453                      0.0000   298903         
    102    91        0.0625   509                      0.0000   302868         
    105    94        2.5114   501                      0.0000   307776         
    108    97        4.5491   636                      0.0000   312565         
    110    99       -0.0000   497                      0.0000   315232         
    114   101        0.0000   459                      0.0000   316340         
